; benchmark generated from python API
(set-info :status unknown)
(declare-fun x_month () Int)
(declare-fun x_day () Int)
(declare-fun x_year () Int)
(declare-fun y_month () Int)
(declare-fun y_day () Int)
(declare-fun y_year () Int)
(assert
 (>= x_month 1))
(assert
 (<= x_month 12))
(assert
 (>= x_day 1))
(assert
 (<= x_day 31))
(assert
 (let (($x273 (<= x_day 28)))
 (let (($x215 (<= x_day 29)))
 (let (($x456 (= (mod x_year 400) 0)))
 (let (($x839 (= (mod x_year 4) 0)))
 (let (($x262 (ite (or (and $x839 (and (distinct (mod x_year 100) 0) true)) $x456) $x215 $x273)))
 (let (($x337 (= x_month 2)))
 (ite $x337 $x262 true))))))))
(assert
 (let (($x210 (<= x_day 30)))
 (let (($x685 (or (= x_month 4) (= x_month 6) (= x_month 9) (= x_month 11))))
 (ite $x685 $x210 true))))
(assert
 (>= y_month 1))
(assert
 (<= y_month 12))
(assert
 (>= y_day 1))
(assert
 (<= y_day 31))
(assert
 (let (($x408 (<= y_day 28)))
 (let (($x226 (<= y_day 29)))
 (let (($x249 (= (mod y_year 400) 0)))
 (let (($x586 (= (mod y_year 4) 0)))
 (let (($x518 (ite (or (and $x586 (and (distinct (mod y_year 100) 0) true)) $x249) $x226 $x408)))
 (let (($x688 (= y_month 2)))
 (ite $x688 $x518 true))))))))
(assert
 (let (($x653 (<= y_day 30)))
 (let (($x845 (or (= y_month 4) (= y_month 6) (= y_month 9) (= y_month 11))))
 (ite $x845 $x653 true))))
(assert
 (let (($x233 (= x_day 29)))
 (let (($x337 (= x_month 2)))
 (let (($x248 (= x_year 2020)))
 (and $x248 $x337 $x233)))))
(assert
 (let (($x29 (or (and (= (mod 2000 4) 0) (and (distinct (mod 2000 100) 0) true)) (= (mod 2000 400) 0))))
 (let ((?x36 (ite (= 3 2) (ite $x29 31 31) (ite (= 3 1) (ite $x29 0 0) 0))))
 (let ((?x46 (ite (= 3 4) (ite $x29 91 90) (ite (= 3 3) (ite $x29 60 59) ?x36))))
 (let ((?x58 (ite (= 3 6) (ite $x29 152 151) (ite (= 3 5) (ite $x29 121 120) ?x46))))
 (let ((?x70 (ite (= 3 8) (ite $x29 213 212) (ite (= 3 7) (ite $x29 182 181) ?x58))))
 (let ((?x82 (ite (= 3 10) (ite $x29 274 273) (ite (= 3 9) (ite $x29 244 243) ?x70))))
 (let ((?x94 (ite (= 3 12) (ite $x29 335 334) (ite (= 3 11) (ite $x29 305 304) ?x82))))
 (let ((?x16 (- (+ (* 365 (- 2000 1)) (div (- 2000 1) 4)) (div (- 2000 1) 100))))
 (let ((?x97 (+ (+ (+ ?x16 (div (- 2000 1) 400)) ?x94) (- 1 1))))
 (let ((?x136 (+ (mod (- (+ x_month (+ (* 1 12) 0)) 1) 12) 1)))
 (let ((?x592 (ite (or (= ?x136 4) (= ?x136 6) (= ?x136 9) (= ?x136 11)) 30 31)))
 (let ((?x142 (+ 0 (div (- (+ x_month (+ (* 1 12) 0)) 1) 12))))
 (let ((?x99 (+ x_year ?x142)))
 (let (($x239 (or (and (= (mod ?x99 4) 0) (and (distinct (mod ?x99 100) 0) true)) (= (mod ?x99 400) 0))))
 (let ((?x706 (ite (= ?x136 2) (ite $x239 29 28) ?x592)))
 (let ((?x903 (ite (< x_day 1) 1 (ite (> x_day ?x706) ?x706 x_day))))
 (let (($x542 (and (= (mod (+ ?x99 (* (div 0 146097) 400)) 4) 0) (and (distinct (mod (+ ?x99 (* (div 0 146097) 400)) 100) 0) true))))
 (let (($x469 (or $x542 (= (mod (+ ?x99 (* (div 0 146097) 400)) 400) 0))))
 (let ((?x568 (ite (= 2 ?x136) (ite $x469 31 31) (ite (= 1 ?x136) (ite $x469 0 0) 0))))
 (let ((?x403 (ite (= 4 ?x136) (ite $x469 91 90) (ite (= 3 ?x136) (ite $x469 60 59) ?x568))))
 (let ((?x479 (ite (= 6 ?x136) (ite $x469 152 151) (ite (= 5 ?x136) (ite $x469 121 120) ?x403))))
 (let ((?x405 (ite (= 8 ?x136) (ite $x469 213 212) (ite (= 7 ?x136) (ite $x469 182 181) ?x479))))
 (let ((?x392 (ite (= 10 ?x136) (ite $x469 274 273) (ite (= 9 ?x136) (ite $x469 244 243) ?x405))))
 (let ((?x766 (ite (= 12 ?x136) (ite $x469 335 334) (ite (= 11 ?x136) (ite $x469 305 304) ?x392))))
 (let ((?x840 (+ (* 365 (- (+ ?x99 (* (div 0 146097) 400)) 1)) (div (- (+ ?x99 (* (div 0 146097) 400)) 1) 4))))
 (let ((?x202 (+ (- ?x840 (div (- (+ ?x99 (* (div 0 146097) 400)) 1) 100)) (div (- (+ ?x99 (* (div 0 146097) 400)) 1) 400))))
 (let ((?x426 (+ (+ (- (+ (+ ?x202 ?x766) (- ?x903 1)) ?x97) (mod 0 146097)) ?x97)))
 (let ((?x471 (mod ?x426 146097)))
 (let ((?x306 (div ?x471 36524)))
 (let ((?x416 (ite (<= 4 ?x306) 3 ?x306)))
 (let ((?x436 (- ?x471 (* ?x416 36524))))
 (let ((?x428 (mod ?x436 1461)))
 (let ((?x461 (div ?x428 365)))
 (let ((?x412 (ite (<= 4 ?x461) 3 ?x461)))
 (let ((?x567 (+ (+ (* (div ?x426 146097) 400) (* ?x416 100)) (* (div ?x436 1461) 4))))
 (let ((?x111 (+ (+ ?x567 ?x412) 1)))
 (let (($x747 (or (and (= (mod ?x111 4) 0) (and (distinct (mod ?x111 100) 0) true)) (= (mod ?x111 400) 0))))
 (let ((?x470 (- ?x428 (* ?x412 365))))
 (let ((?x649 (ite $x747 31 31)))
 (let (($x792 (>= ?x470 ?x649)))
 (let ((?x598 (ite $x792 (+ (- ?x470 ?x649) 1) (+ (- ?x470 (ite $x747 0 0)) 1))))
 (let ((?x339 (ite $x747 60 59)))
 (let (($x617 (>= ?x470 ?x339)))
 (let ((?x704 (ite $x747 91 90)))
 (let (($x103 (>= ?x470 ?x704)))
 (let ((?x628 (ite $x103 (+ (- ?x470 ?x704) 1) (ite $x617 (+ (- ?x470 ?x339) 1) ?x598))))
 (let ((?x709 (ite $x747 121 120)))
 (let (($x635 (>= ?x470 ?x709)))
 (let ((?x596 (ite $x747 152 151)))
 (let (($x640 (>= ?x470 ?x596)))
 (let ((?x271 (ite $x640 (+ (- ?x470 ?x596) 1) (ite $x635 (+ (- ?x470 ?x709) 1) ?x628))))
 (let ((?x698 (ite $x747 182 181)))
 (let (($x605 (>= ?x470 ?x698)))
 (let ((?x699 (ite $x747 213 212)))
 (let (($x626 (>= ?x470 ?x699)))
 (let ((?x304 (ite $x626 (+ (- ?x470 ?x699) 1) (ite $x605 (+ (- ?x470 ?x698) 1) ?x271))))
 (let ((?x492 (ite $x747 244 243)))
 (let (($x602 (>= ?x470 ?x492)))
 (let ((?x746 (ite $x747 274 273)))
 (let (($x763 (>= ?x470 ?x746)))
 (let ((?x217 (ite $x763 (+ (- ?x470 ?x746) 1) (ite $x602 (+ (- ?x470 ?x492) 1) ?x304))))
 (let ((?x684 (ite $x747 305 304)))
 (let (($x769 (>= ?x470 ?x684)))
 (let ((?x791 (ite $x747 335 334)))
 (let (($x713 (>= ?x470 ?x791)))
 (let ((?x733 (ite $x713 (+ (- ?x470 ?x791) 1) (ite $x769 (+ (- ?x470 ?x684) 1) ?x217))))
 (let (($x466 (= 0 0)))
 (let ((?x603 (ite $x635 5 (ite $x103 4 (ite $x617 3 (ite $x792 2 1))))))
 (let ((?x768 (ite $x602 9 (ite $x626 8 (ite $x605 7 (ite $x640 6 ?x603))))))
 (let (($x726 (= y_month (ite $x466 ?x136 (ite $x713 12 (ite $x769 11 (ite $x763 10 ?x768)))))))
 (and (= y_year (ite $x466 ?x99 ?x111)) $x726 (= y_day (ite $x466 ?x903 ?x733))))))))))))))))))))))))))))))))))))))))))))))))))))))))))))))))))))))))))
(assert
 (not (and (= y_year 2021) (= y_month 2) (= y_day 28))))
(check-sat)
